201
0 197 84 52 149 33 169 136 1 86 
98 143 112 130 115 184 175 153 13 96 
138 55 105 104 76 185 187 63 199 174 
42 62 109 83 72 81 94 120 74 128 
173 113 170 89 40 20 91 196 131 150 
17 183 110 31 27 176 180 117 163 10 
6 5 135 198 190 129 106 108 92 191 
167 114 116 162 19 75 133 28 12 36 
24 77 100 132 93 186 43 65 16 146 
171 181 147 58 56 157 22 35 26 7 
70 101 118 9 48 194 158 122 66 30 
53 71 14 145 161 168 80 50 64 189 
125 140 102 119 51 139 141 95 177 60 
21 59 3 61 49 87 148 18 179 8 
41 111 154 11 25 144 188 193 97 160 
23 195 2 155 15 44 151 127 69 103 
73 164 90 68 29 172 67 159 79 39 
126 85 178 45 142 32 78 47 107 123 
200 34 88 54 152 46 38 182 156 137 
192 124 99 165 134 166 121 57 4 82 
37 
